1122649
1,26,66,60,49,35,98,79,67,12,59,30,61,74,68,40,5,48,92,62,71,54,43,90,96,41,34,2,63,4,84,88,7,52,82,14,15,57,81,22,64,51,42,58,89,33,70,83,91,38,13,80,85,44,47,36,73,69,31,95,29,9,55,17,76,20,19,8,32,56,65,3,6,72,21,10,45,27,97,53,23,18,11,16,25,93,39,28,78,50,77,24,94,46,0,86,75,37,87,1